db/data/5821246225618232972206685228754491.z3.out
sat
-------------------
540.656703138
